\ENCODING=ISO-8859-1
\Problem name: ilog.cplex

Minimize
 obj1: 0.4 n_0 + 0.4 n_1 + 0.4 n_2 + 0.4 n_3 + 0.7 n_4 + 0.7 n_5 + 0.7 n_6
       + 0.7 n_7 + n_8 + n_9 + n_10 + n_11
Subject To
 xi_0,1:           - x_1 + 520 a_0,1 + x_0 + 200 lx_0 + 200 wx_0 + 50 hx_0
                   <= 520
 xk_0,1:           x_1 - x_0 + 520 b_0,1 + 200 lx_1 + 200 wx_1 + 50 hx_1 <= 520
 yi_0,1:           - y_1 + 500 c_0,1 + y_0 + 200 ly_0 + 200 wy_0 + 50 hy_0
                   <= 500
 yk_0,1:           y_1 - y_0 + 500 d_0,1 + 200 ly_1 + 200 wy_1 + 50 hy_1 <= 500
 zi_0,1:           - z_1 + 520 r_0,1 + z_0 + 200 lz_0 + 200 wz_0 + 50 hz_0
                   <= 520
 zk_0,1:           z_1 - z_0 + 520 f_0,1 + 200 lz_1 + 200 wz_1 + 50 hz_1 <= 520
 xi_0,2:           x_0 + 200 lx_0 + 200 wx_0 + 50 hx_0 - x_2 + 520 a_0,2 <= 520
 xk_0,2:           - x_0 + x_2 + 520 b_0,2 + 200 lx_2 + 110 wx_2 + 40 hx_2
                   <= 520
 yi_0,2:           y_0 + 200 ly_0 + 200 wy_0 + 50 hy_0 - y_2 + 500 c_0,2 <= 500
 yk_0,2:           - y_0 + y_2 + 500 d_0,2 + 200 ly_2 + 110 wy_2 + 40 hy_2
                   <= 500
 zi_0,2:           z_0 + 200 lz_0 + 200 wz_0 + 50 hz_0 - z_2 + 520 r_0,2 <= 520
 zk_0,2:           - z_0 + z_2 + 520 f_0,2 + 200 lz_2 + 110 wz_2 + 40 hz_2
                   <= 520
 xi_0,3:           x_0 + 200 lx_0 + 200 wx_0 + 50 hx_0 - x_3 + 520 a_0,3 <= 520
 xk_0,3:           - x_0 + x_3 + 520 b_0,3 + 10 lx_3 + 10 wx_3 + 10 hx_3 <= 520
 yi_0,3:           y_0 + 200 ly_0 + 200 wy_0 + 50 hy_0 - y_3 + 500 c_0,3 <= 500
 yk_0,3:           - y_0 + y_3 + 500 d_0,3 + 10 ly_3 + 10 wy_3 + 10 hy_3 <= 500
 zi_0,3:           z_0 + 200 lz_0 + 200 wz_0 + 50 hz_0 - z_3 + 520 r_0,3 <= 520
 zk_0,3:           - z_0 + z_3 + 520 f_0,3 + 10 lz_3 + 10 wz_3 + 10 hz_3 <= 520
 xi_1,2:           x_1 + 200 lx_1 + 200 wx_1 + 50 hx_1 - x_2 + 520 a_1,2 <= 520
 xk_1,2:           - x_1 + x_2 + 200 lx_2 + 110 wx_2 + 40 hx_2 + 520 b_1,2
                   <= 520
 yi_1,2:           y_1 + 200 ly_1 + 200 wy_1 + 50 hy_1 - y_2 + 500 c_1,2 <= 500
 yk_1,2:           - y_1 + y_2 + 200 ly_2 + 110 wy_2 + 40 hy_2 + 500 d_1,2
                   <= 500
 zi_1,2:           z_1 + 200 lz_1 + 200 wz_1 + 50 hz_1 - z_2 + 520 r_1,2 <= 520
 zk_1,2:           - z_1 + z_2 + 200 lz_2 + 110 wz_2 + 40 hz_2 + 520 f_1,2
                   <= 520
 xi_1,3:           x_1 + 200 lx_1 + 200 wx_1 + 50 hx_1 - x_3 + 520 a_1,3 <= 520
 xk_1,3:           - x_1 + x_3 + 10 lx_3 + 10 wx_3 + 10 hx_3 + 520 b_1,3 <= 520
 yi_1,3:           y_1 + 200 ly_1 + 200 wy_1 + 50 hy_1 - y_3 + 500 c_1,3 <= 500
 yk_1,3:           - y_1 + y_3 + 10 ly_3 + 10 wy_3 + 10 hy_3 + 500 d_1,3 <= 500
 zi_1,3:           z_1 + 200 lz_1 + 200 wz_1 + 50 hz_1 - z_3 + 520 r_1,3 <= 520
 zk_1,3:           - z_1 + z_3 + 10 lz_3 + 10 wz_3 + 10 hz_3 + 520 f_1,3 <= 520
 xi_2,3:           x_2 + 200 lx_2 + 110 wx_2 + 40 hx_2 - x_3 + 520 a_2,3 <= 520
 xk_2,3:           - x_2 + x_3 + 10 lx_3 + 10 wx_3 + 10 hx_3 + 520 b_2,3 <= 520
 yi_2,3:           y_2 + 200 ly_2 + 110 wy_2 + 40 hy_2 - y_3 + 500 c_2,3 <= 500
 yk_2,3:           - y_2 + y_3 + 10 ly_3 + 10 wy_3 + 10 hy_3 + 500 d_2,3 <= 500
 zi_2,3:           z_2 + 200 lz_2 + 110 wz_2 + 40 hz_2 - z_3 + 520 r_2,3 <= 520
 zk_2,3:           - z_2 + z_3 + 10 lz_3 + 10 wz_3 + 10 hz_3 + 520 f_2,3 <= 520
 position_,0,0,1:  a_0,1 + b_0,1 + c_0,1 + d_0,1 + r_0,1 + f_0,1 - s_0,0
                   - s_1,0 >= -1
 position_,0,1,1:  a_0,1 + b_0,1 + c_0,1 + d_0,1 + r_0,1 + f_0,1 - s_0,1
                   - s_1,1 >= -1
 position_,0,2,1:  a_0,1 + b_0,1 + c_0,1 + d_0,1 + r_0,1 + f_0,1 - s_0,2
                   - s_1,2 >= -1
 position_,0,3,1:  a_0,1 + b_0,1 + c_0,1 + d_0,1 + r_0,1 + f_0,1 - s_0,3
                   - s_1,3 >= -1
 position_,0,4,1:  a_0,1 + b_0,1 + c_0,1 + d_0,1 + r_0,1 + f_0,1 - s_0,4
                   - s_1,4 >= -1
 position_,0,5,1:  a_0,1 + b_0,1 + c_0,1 + d_0,1 + r_0,1 + f_0,1 - s_0,5
                   - s_1,5 >= -1
 position_,0,6,1:  a_0,1 + b_0,1 + c_0,1 + d_0,1 + r_0,1 + f_0,1 - s_0,6
                   - s_1,6 >= -1
 position_,0,7,1:  a_0,1 + b_0,1 + c_0,1 + d_0,1 + r_0,1 + f_0,1 - s_0,7
                   - s_1,7 >= -1
 position_,0,8,1:  a_0,1 + b_0,1 + c_0,1 + d_0,1 + r_0,1 + f_0,1 - s_0,8
                   - s_1,8 >= -1
 position_,0,9,1:  a_0,1 + b_0,1 + c_0,1 + d_0,1 + r_0,1 + f_0,1 - s_0,9
                   - s_1,9 >= -1
 position_,0,10,1: a_0,1 + b_0,1 + c_0,1 + d_0,1 + r_0,1 + f_0,1 - s_0,10
                   - s_1,10 >= -1
 position_,0,11,1: a_0,1 + b_0,1 + c_0,1 + d_0,1 + r_0,1 + f_0,1 - s_0,11
                   - s_1,11 >= -1
 position_,0,0,2:  a_0,2 + b_0,2 + c_0,2 + d_0,2 + r_0,2 + f_0,2 - s_0,0
                   - s_2,0 >= -1
 position_,0,1,2:  a_0,2 + b_0,2 + c_0,2 + d_0,2 + r_0,2 + f_0,2 - s_0,1
                   - s_2,1 >= -1
 position_,0,2,2:  a_0,2 + b_0,2 + c_0,2 + d_0,2 + r_0,2 + f_0,2 - s_0,2
                   - s_2,2 >= -1
 position_,0,3,2:  a_0,2 + b_0,2 + c_0,2 + d_0,2 + r_0,2 + f_0,2 - s_0,3
                   - s_2,3 >= -1
 position_,0,4,2:  a_0,2 + b_0,2 + c_0,2 + d_0,2 + r_0,2 + f_0,2 - s_0,4
                   - s_2,4 >= -1
 position_,0,5,2:  a_0,2 + b_0,2 + c_0,2 + d_0,2 + r_0,2 + f_0,2 - s_0,5
                   - s_2,5 >= -1
 position_,0,6,2:  a_0,2 + b_0,2 + c_0,2 + d_0,2 + r_0,2 + f_0,2 - s_0,6
                   - s_2,6 >= -1
 position_,0,7,2:  a_0,2 + b_0,2 + c_0,2 + d_0,2 + r_0,2 + f_0,2 - s_0,7
                   - s_2,7 >= -1
 position_,0,8,2:  a_0,2 + b_0,2 + c_0,2 + d_0,2 + r_0,2 + f_0,2 - s_0,8
                   - s_2,8 >= -1
 position_,0,9,2:  a_0,2 + b_0,2 + c_0,2 + d_0,2 + r_0,2 + f_0,2 - s_0,9
                   - s_2,9 >= -1
 position_,0,10,2: a_0,2 + b_0,2 + c_0,2 + d_0,2 + r_0,2 + f_0,2 - s_0,10
                   - s_2,10 >= -1
 position_,0,11,2: a_0,2 + b_0,2 + c_0,2 + d_0,2 + r_0,2 + f_0,2 - s_0,11
                   - s_2,11 >= -1
 position_,0,0,3:  a_0,3 + b_0,3 + c_0,3 + d_0,3 + r_0,3 + f_0,3 - s_0,0
                   - s_3,0 >= -1
 position_,0,1,3:  a_0,3 + b_0,3 + c_0,3 + d_0,3 + r_0,3 + f_0,3 - s_0,1
                   - s_3,1 >= -1
 position_,0,2,3:  a_0,3 + b_0,3 + c_0,3 + d_0,3 + r_0,3 + f_0,3 - s_0,2
                   - s_3,2 >= -1
 position_,0,3,3:  a_0,3 + b_0,3 + c_0,3 + d_0,3 + r_0,3 + f_0,3 - s_0,3
                   - s_3,3 >= -1
 position_,0,4,3:  a_0,3 + b_0,3 + c_0,3 + d_0,3 + r_0,3 + f_0,3 - s_0,4
                   - s_3,4 >= -1
 position_,0,5,3:  a_0,3 + b_0,3 + c_0,3 + d_0,3 + r_0,3 + f_0,3 - s_0,5
                   - s_3,5 >= -1
 position_,0,6,3:  a_0,3 + b_0,3 + c_0,3 + d_0,3 + r_0,3 + f_0,3 - s_0,6
                   - s_3,6 >= -1
 position_,0,7,3:  a_0,3 + b_0,3 + c_0,3 + d_0,3 + r_0,3 + f_0,3 - s_0,7
                   - s_3,7 >= -1
 position_,0,8,3:  a_0,3 + b_0,3 + c_0,3 + d_0,3 + r_0,3 + f_0,3 - s_0,8
                   - s_3,8 >= -1
 position_,0,9,3:  a_0,3 + b_0,3 + c_0,3 + d_0,3 + r_0,3 + f_0,3 - s_0,9
                   - s_3,9 >= -1
 position_,0,10,3: a_0,3 + b_0,3 + c_0,3 + d_0,3 + r_0,3 + f_0,3 - s_0,10
                   - s_3,10 >= -1
 position_,0,11,3: a_0,3 + b_0,3 + c_0,3 + d_0,3 + r_0,3 + f_0,3 - s_0,11
                   - s_3,11 >= -1
 position_,1,0,2:  a_1,2 + b_1,2 + c_1,2 + d_1,2 + r_1,2 + f_1,2 - s_1,0
                   - s_2,0 >= -1
 position_,1,1,2:  a_1,2 + b_1,2 + c_1,2 + d_1,2 + r_1,2 + f_1,2 - s_1,1
                   - s_2,1 >= -1
 position_,1,2,2:  a_1,2 + b_1,2 + c_1,2 + d_1,2 + r_1,2 + f_1,2 - s_1,2
                   - s_2,2 >= -1
 position_,1,3,2:  a_1,2 + b_1,2 + c_1,2 + d_1,2 + r_1,2 + f_1,2 - s_1,3
                   - s_2,3 >= -1
 position_,1,4,2:  a_1,2 + b_1,2 + c_1,2 + d_1,2 + r_1,2 + f_1,2 - s_1,4
                   - s_2,4 >= -1
 position_,1,5,2:  a_1,2 + b_1,2 + c_1,2 + d_1,2 + r_1,2 + f_1,2 - s_1,5
                   - s_2,5 >= -1
 position_,1,6,2:  a_1,2 + b_1,2 + c_1,2 + d_1,2 + r_1,2 + f_1,2 - s_1,6
                   - s_2,6 >= -1
 position_,1,7,2:  a_1,2 + b_1,2 + c_1,2 + d_1,2 + r_1,2 + f_1,2 - s_1,7
                   - s_2,7 >= -1
 position_,1,8,2:  a_1,2 + b_1,2 + c_1,2 + d_1,2 + r_1,2 + f_1,2 - s_1,8
                   - s_2,8 >= -1
 position_,1,9,2:  a_1,2 + b_1,2 + c_1,2 + d_1,2 + r_1,2 + f_1,2 - s_1,9
                   - s_2,9 >= -1
 position_,1,10,2: a_1,2 + b_1,2 + c_1,2 + d_1,2 + r_1,2 + f_1,2 - s_1,10
                   - s_2,10 >= -1
 position_,1,11,2: a_1,2 + b_1,2 + c_1,2 + d_1,2 + r_1,2 + f_1,2 - s_1,11
                   - s_2,11 >= -1
 position_,1,0,3:  a_1,3 + b_1,3 + c_1,3 + d_1,3 + r_1,3 + f_1,3 - s_1,0
                   - s_3,0 >= -1
 position_,1,1,3:  a_1,3 + b_1,3 + c_1,3 + d_1,3 + r_1,3 + f_1,3 - s_1,1
                   - s_3,1 >= -1
 position_,1,2,3:  a_1,3 + b_1,3 + c_1,3 + d_1,3 + r_1,3 + f_1,3 - s_1,2
                   - s_3,2 >= -1
 position_,1,3,3:  a_1,3 + b_1,3 + c_1,3 + d_1,3 + r_1,3 + f_1,3 - s_1,3
                   - s_3,3 >= -1
 position_,1,4,3:  a_1,3 + b_1,3 + c_1,3 + d_1,3 + r_1,3 + f_1,3 - s_1,4
                   - s_3,4 >= -1
 position_,1,5,3:  a_1,3 + b_1,3 + c_1,3 + d_1,3 + r_1,3 + f_1,3 - s_1,5
                   - s_3,5 >= -1
 position_,1,6,3:  a_1,3 + b_1,3 + c_1,3 + d_1,3 + r_1,3 + f_1,3 - s_1,6
                   - s_3,6 >= -1
 position_,1,7,3:  a_1,3 + b_1,3 + c_1,3 + d_1,3 + r_1,3 + f_1,3 - s_1,7
                   - s_3,7 >= -1
 position_,1,8,3:  a_1,3 + b_1,3 + c_1,3 + d_1,3 + r_1,3 + f_1,3 - s_1,8
                   - s_3,8 >= -1
 position_,1,9,3:  a_1,3 + b_1,3 + c_1,3 + d_1,3 + r_1,3 + f_1,3 - s_1,9
                   - s_3,9 >= -1
 position_,1,10,3: a_1,3 + b_1,3 + c_1,3 + d_1,3 + r_1,3 + f_1,3 - s_1,10
                   - s_3,10 >= -1
 position_,1,11,3: a_1,3 + b_1,3 + c_1,3 + d_1,3 + r_1,3 + f_1,3 - s_1,11
                   - s_3,11 >= -1
 position_,2,0,3:  a_2,3 + b_2,3 + c_2,3 + d_2,3 + r_2,3 + f_2,3 - s_2,0
                   - s_3,0 >= -1
 position_,2,1,3:  a_2,3 + b_2,3 + c_2,3 + d_2,3 + r_2,3 + f_2,3 - s_2,1
                   - s_3,1 >= -1
 position_,2,2,3:  a_2,3 + b_2,3 + c_2,3 + d_2,3 + r_2,3 + f_2,3 - s_2,2
                   - s_3,2 >= -1
 position_,2,3,3:  a_2,3 + b_2,3 + c_2,3 + d_2,3 + r_2,3 + f_2,3 - s_2,3
                   - s_3,3 >= -1
 position_,2,4,3:  a_2,3 + b_2,3 + c_2,3 + d_2,3 + r_2,3 + f_2,3 - s_2,4
                   - s_3,4 >= -1
 position_,2,5,3:  a_2,3 + b_2,3 + c_2,3 + d_2,3 + r_2,3 + f_2,3 - s_2,5
                   - s_3,5 >= -1
 position_,2,6,3:  a_2,3 + b_2,3 + c_2,3 + d_2,3 + r_2,3 + f_2,3 - s_2,6
                   - s_3,6 >= -1
 position_,2,7,3:  a_2,3 + b_2,3 + c_2,3 + d_2,3 + r_2,3 + f_2,3 - s_2,7
                   - s_3,7 >= -1
 position_,2,8,3:  a_2,3 + b_2,3 + c_2,3 + d_2,3 + r_2,3 + f_2,3 - s_2,8
                   - s_3,8 >= -1
 position_,2,9,3:  a_2,3 + b_2,3 + c_2,3 + d_2,3 + r_2,3 + f_2,3 - s_2,9
                   - s_3,9 >= -1
 position_,2,10,3: a_2,3 + b_2,3 + c_2,3 + d_2,3 + r_2,3 + f_2,3 - s_2,10
                   - s_3,10 >= -1
 position_,2,11,3: a_2,3 + b_2,3 + c_2,3 + d_2,3 + r_2,3 + f_2,3 - s_2,11
                   - s_3,11 >= -1
 bag_and_box0:     s_0,0 + s_0,1 + s_0,2 + s_0,3 + s_0,4 + s_0,5 + s_0,6
                   + s_0,7 + s_0,8 + s_0,9 + s_0,10 + s_0,11  = 1
 bag_and_box1:     s_1,0 + s_1,1 + s_1,2 + s_1,3 + s_1,4 + s_1,5 + s_1,6
                   + s_1,7 + s_1,8 + s_1,9 + s_1,10 + s_1,11  = 1
 bag_and_box2:     s_2,0 + s_2,1 + s_2,2 + s_2,3 + s_2,4 + s_2,5 + s_2,6
                   + s_2,7 + s_2,8 + s_2,9 + s_2,10 + s_2,11  = 1
 bag_and_box3:     s_3,0 + s_3,1 + s_3,2 + s_3,3 + s_3,4 + s_3,5 + s_3,6
                   + s_3,7 + s_3,8 + s_3,9 + s_3,10 + s_3,11  = 1
 bagUsed_0:        s_0,0 + s_1,0 + s_2,0 + s_3,0 - 5 n_0 <= 0
 bagUsed_1:        s_0,1 + s_1,1 + s_2,1 + s_3,1 - 5 n_1 <= 0
 bagUsed_2:        s_0,2 + s_1,2 + s_2,2 + s_3,2 - 5 n_2 <= 0
 bagUsed_3:        s_0,3 + s_1,3 + s_2,3 + s_3,3 - 5 n_3 <= 0
 bagUsed_4:        s_0,4 + s_1,4 + s_2,4 + s_3,4 - 5 n_4 <= 0
 bagUsed_5:        s_0,5 + s_1,5 + s_2,5 + s_3,5 - 5 n_5 <= 0
 bagUsed_6:        s_0,6 + s_1,6 + s_2,6 + s_3,6 - 5 n_6 <= 0
 bagUsed_7:        s_0,7 + s_1,7 + s_2,7 + s_3,7 - 5 n_7 <= 0
 bagUsed_8:        s_0,8 + s_1,8 + s_2,8 + s_3,8 - 5 n_8 <= 0
 bagUsed_9:        s_0,9 + s_1,9 + s_2,9 + s_3,9 - 5 n_9 <= 0
 bagUsed_10:       s_0,10 + s_1,10 + s_2,10 + s_3,10 - 5 n_10 <= 0
 bagUsed_11:       s_0,11 + s_1,11 + s_2,11 + s_3,11 - 5 n_11 <= 0
 length_0,0:       x_0 + 200 lx_0 + 200 wx_0 + 50 hx_0 + 520 s_0,0 - L_0 <= 520
 width_0,0:        y_0 + 200 ly_0 + 200 wy_0 + 50 hy_0 + 500 s_0,0 - W_0 <= 500
 height_0,0:       z_0 + 200 lz_0 + 200 wz_0 + 50 hz_0 + 520 s_0,0 - H_0 <= 520
 length_0,1:       x_0 + 200 lx_0 + 200 wx_0 + 50 hx_0 + 520 s_0,1 - L_1 <= 520
 width_0,1:        y_0 + 200 ly_0 + 200 wy_0 + 50 hy_0 + 500 s_0,1 - W_1 <= 500
 height_0,1:       z_0 + 200 lz_0 + 200 wz_0 + 50 hz_0 + 520 s_0,1 - H_1 <= 520
 length_0,2:       x_0 + 200 lx_0 + 200 wx_0 + 50 hx_0 + 520 s_0,2 - L_2 <= 520
 width_0,2:        y_0 + 200 ly_0 + 200 wy_0 + 50 hy_0 + 500 s_0,2 - W_2 <= 500
 height_0,2:       z_0 + 200 lz_0 + 200 wz_0 + 50 hz_0 + 520 s_0,2 - H_2 <= 520
 length_0,3:       x_0 + 200 lx_0 + 200 wx_0 + 50 hx_0 + 520 s_0,3 - L_3 <= 520
 width_0,3:        y_0 + 200 ly_0 + 200 wy_0 + 50 hy_0 + 500 s_0,3 - W_3 <= 500
 height_0,3:       z_0 + 200 lz_0 + 200 wz_0 + 50 hz_0 + 520 s_0,3 - H_3 <= 520
 length_0,4:       x_0 + 200 lx_0 + 200 wx_0 + 50 hx_0 + 520 s_0,4 - L_4 <= 520
 width_0,4:        y_0 + 200 ly_0 + 200 wy_0 + 50 hy_0 + 500 s_0,4 - W_4 <= 500
 height_0,4:       z_0 + 200 lz_0 + 200 wz_0 + 50 hz_0 + 520 s_0,4 - H_4 <= 520
 length_0,5:       x_0 + 200 lx_0 + 200 wx_0 + 50 hx_0 + 520 s_0,5 - L_5 <= 520
 width_0,5:        y_0 + 200 ly_0 + 200 wy_0 + 50 hy_0 + 500 s_0,5 - W_5 <= 500
 height_0,5:       z_0 + 200 lz_0 + 200 wz_0 + 50 hz_0 + 520 s_0,5 - H_5 <= 520
 length_0,6:       x_0 + 200 lx_0 + 200 wx_0 + 50 hx_0 + 520 s_0,6 - L_6 <= 520
 width_0,6:        y_0 + 200 ly_0 + 200 wy_0 + 50 hy_0 + 500 s_0,6 - W_6 <= 500
 height_0,6:       z_0 + 200 lz_0 + 200 wz_0 + 50 hz_0 + 520 s_0,6 - H_6 <= 520
 length_0,7:       x_0 + 200 lx_0 + 200 wx_0 + 50 hx_0 + 520 s_0,7 - L_7 <= 520
 width_0,7:        y_0 + 200 ly_0 + 200 wy_0 + 50 hy_0 + 500 s_0,7 - W_7 <= 500
 height_0,7:       z_0 + 200 lz_0 + 200 wz_0 + 50 hz_0 + 520 s_0,7 - H_7 <= 520
 length_0,8:       x_0 + 200 lx_0 + 200 wx_0 + 50 hx_0 + 520 s_0,8 - L_8 <= 520
 width_0,8:        y_0 + 200 ly_0 + 200 wy_0 + 50 hy_0 + 500 s_0,8 - W_8 <= 500
 height_0,8:       z_0 + 200 lz_0 + 200 wz_0 + 50 hz_0 + 520 s_0,8 - H_8 <= 520
 length_0,9:       x_0 + 200 lx_0 + 200 wx_0 + 50 hx_0 + 520 s_0,9 - L_9 <= 520
 width_0,9:        y_0 + 200 ly_0 + 200 wy_0 + 50 hy_0 + 500 s_0,9 - W_9 <= 500
 height_0,9:       z_0 + 200 lz_0 + 200 wz_0 + 50 hz_0 + 520 s_0,9 - H_9 <= 520
 length_0,10:      x_0 + 200 lx_0 + 200 wx_0 + 50 hx_0 + 520 s_0,10 - L_10
                   <= 520
 width_0,10:       y_0 + 200 ly_0 + 200 wy_0 + 50 hy_0 + 500 s_0,10 - W_10
                   <= 500
 height_0,10:      z_0 + 200 lz_0 + 200 wz_0 + 50 hz_0 + 520 s_0,10 - H_10
                   <= 520
 length_0,11:      x_0 + 200 lx_0 + 200 wx_0 + 50 hx_0 + 520 s_0,11 - L_11
                   <= 520
 width_0,11:       y_0 + 200 ly_0 + 200 wy_0 + 50 hy_0 + 500 s_0,11 - W_11
                   <= 500
 height_0,11:      z_0 + 200 lz_0 + 200 wz_0 + 50 hz_0 + 520 s_0,11 - H_11
                   <= 520
 length_1,0:       x_1 + 200 lx_1 + 200 wx_1 + 50 hx_1 + 520 s_1,0 - L_0 <= 520
 width_1,0:        y_1 + 200 ly_1 + 200 wy_1 + 50 hy_1 + 500 s_1,0 - W_0 <= 500
 height_1,0:       z_1 + 200 lz_1 + 200 wz_1 + 50 hz_1 + 520 s_1,0 - H_0 <= 520
 length_1,1:       x_1 + 200 lx_1 + 200 wx_1 + 50 hx_1 + 520 s_1,1 - L_1 <= 520
 width_1,1:        y_1 + 200 ly_1 + 200 wy_1 + 50 hy_1 + 500 s_1,1 - W_1 <= 500
 height_1,1:       z_1 + 200 lz_1 + 200 wz_1 + 50 hz_1 + 520 s_1,1 - H_1 <= 520
 length_1,2:       x_1 + 200 lx_1 + 200 wx_1 + 50 hx_1 + 520 s_1,2 - L_2 <= 520
 width_1,2:        y_1 + 200 ly_1 + 200 wy_1 + 50 hy_1 + 500 s_1,2 - W_2 <= 500
 height_1,2:       z_1 + 200 lz_1 + 200 wz_1 + 50 hz_1 + 520 s_1,2 - H_2 <= 520
 length_1,3:       x_1 + 200 lx_1 + 200 wx_1 + 50 hx_1 + 520 s_1,3 - L_3 <= 520
 width_1,3:        y_1 + 200 ly_1 + 200 wy_1 + 50 hy_1 + 500 s_1,3 - W_3 <= 500
 height_1,3:       z_1 + 200 lz_1 + 200 wz_1 + 50 hz_1 + 520 s_1,3 - H_3 <= 520
 length_1,4:       x_1 + 200 lx_1 + 200 wx_1 + 50 hx_1 + 520 s_1,4 - L_4 <= 520
 width_1,4:        y_1 + 200 ly_1 + 200 wy_1 + 50 hy_1 + 500 s_1,4 - W_4 <= 500
 height_1,4:       z_1 + 200 lz_1 + 200 wz_1 + 50 hz_1 + 520 s_1,4 - H_4 <= 520
 length_1,5:       x_1 + 200 lx_1 + 200 wx_1 + 50 hx_1 + 520 s_1,5 - L_5 <= 520
 width_1,5:        y_1 + 200 ly_1 + 200 wy_1 + 50 hy_1 + 500 s_1,5 - W_5 <= 500
 height_1,5:       z_1 + 200 lz_1 + 200 wz_1 + 50 hz_1 + 520 s_1,5 - H_5 <= 520
 length_1,6:       x_1 + 200 lx_1 + 200 wx_1 + 50 hx_1 + 520 s_1,6 - L_6 <= 520
 width_1,6:        y_1 + 200 ly_1 + 200 wy_1 + 50 hy_1 + 500 s_1,6 - W_6 <= 500
 height_1,6:       z_1 + 200 lz_1 + 200 wz_1 + 50 hz_1 + 520 s_1,6 - H_6 <= 520
 length_1,7:       x_1 + 200 lx_1 + 200 wx_1 + 50 hx_1 + 520 s_1,7 - L_7 <= 520
 width_1,7:        y_1 + 200 ly_1 + 200 wy_1 + 50 hy_1 + 500 s_1,7 - W_7 <= 500
 height_1,7:       z_1 + 200 lz_1 + 200 wz_1 + 50 hz_1 + 520 s_1,7 - H_7 <= 520
 length_1,8:       x_1 + 200 lx_1 + 200 wx_1 + 50 hx_1 + 520 s_1,8 - L_8 <= 520
 width_1,8:        y_1 + 200 ly_1 + 200 wy_1 + 50 hy_1 + 500 s_1,8 - W_8 <= 500
 height_1,8:       z_1 + 200 lz_1 + 200 wz_1 + 50 hz_1 + 520 s_1,8 - H_8 <= 520
 length_1,9:       x_1 + 200 lx_1 + 200 wx_1 + 50 hx_1 + 520 s_1,9 - L_9 <= 520
 width_1,9:        y_1 + 200 ly_1 + 200 wy_1 + 50 hy_1 + 500 s_1,9 - W_9 <= 500
 height_1,9:       z_1 + 200 lz_1 + 200 wz_1 + 50 hz_1 + 520 s_1,9 - H_9 <= 520
 length_1,10:      x_1 + 200 lx_1 + 200 wx_1 + 50 hx_1 + 520 s_1,10 - L_10
                   <= 520
 width_1,10:       y_1 + 200 ly_1 + 200 wy_1 + 50 hy_1 + 500 s_1,10 - W_10
                   <= 500
 height_1,10:      z_1 + 200 lz_1 + 200 wz_1 + 50 hz_1 + 520 s_1,10 - H_10
                   <= 520
 length_1,11:      x_1 + 200 lx_1 + 200 wx_1 + 50 hx_1 + 520 s_1,11 - L_11
                   <= 520
 width_1,11:       y_1 + 200 ly_1 + 200 wy_1 + 50 hy_1 + 500 s_1,11 - W_11
                   <= 500
 height_1,11:      z_1 + 200 lz_1 + 200 wz_1 + 50 hz_1 + 520 s_1,11 - H_11
                   <= 520
 length_2,0:       x_2 + 200 lx_2 + 110 wx_2 + 40 hx_2 + 520 s_2,0 - L_0 <= 520
 width_2,0:        y_2 + 200 ly_2 + 110 wy_2 + 40 hy_2 + 500 s_2,0 - W_0 <= 500
 height_2,0:       z_2 + 200 lz_2 + 110 wz_2 + 40 hz_2 + 520 s_2,0 - H_0 <= 520
 length_2,1:       x_2 + 200 lx_2 + 110 wx_2 + 40 hx_2 + 520 s_2,1 - L_1 <= 520
 width_2,1:        y_2 + 200 ly_2 + 110 wy_2 + 40 hy_2 + 500 s_2,1 - W_1 <= 500
 height_2,1:       z_2 + 200 lz_2 + 110 wz_2 + 40 hz_2 + 520 s_2,1 - H_1 <= 520
 length_2,2:       x_2 + 200 lx_2 + 110 wx_2 + 40 hx_2 + 520 s_2,2 - L_2 <= 520
 width_2,2:        y_2 + 200 ly_2 + 110 wy_2 + 40 hy_2 + 500 s_2,2 - W_2 <= 500
 height_2,2:       z_2 + 200 lz_2 + 110 wz_2 + 40 hz_2 + 520 s_2,2 - H_2 <= 520
 length_2,3:       x_2 + 200 lx_2 + 110 wx_2 + 40 hx_2 + 520 s_2,3 - L_3 <= 520
 width_2,3:        y_2 + 200 ly_2 + 110 wy_2 + 40 hy_2 + 500 s_2,3 - W_3 <= 500
 height_2,3:       z_2 + 200 lz_2 + 110 wz_2 + 40 hz_2 + 520 s_2,3 - H_3 <= 520
 length_2,4:       x_2 + 200 lx_2 + 110 wx_2 + 40 hx_2 + 520 s_2,4 - L_4 <= 520
 width_2,4:        y_2 + 200 ly_2 + 110 wy_2 + 40 hy_2 + 500 s_2,4 - W_4 <= 500
 height_2,4:       z_2 + 200 lz_2 + 110 wz_2 + 40 hz_2 + 520 s_2,4 - H_4 <= 520
 length_2,5:       x_2 + 200 lx_2 + 110 wx_2 + 40 hx_2 + 520 s_2,5 - L_5 <= 520
 width_2,5:        y_2 + 200 ly_2 + 110 wy_2 + 40 hy_2 + 500 s_2,5 - W_5 <= 500
 height_2,5:       z_2 + 200 lz_2 + 110 wz_2 + 40 hz_2 + 520 s_2,5 - H_5 <= 520
 length_2,6:       x_2 + 200 lx_2 + 110 wx_2 + 40 hx_2 + 520 s_2,6 - L_6 <= 520
 width_2,6:        y_2 + 200 ly_2 + 110 wy_2 + 40 hy_2 + 500 s_2,6 - W_6 <= 500
 height_2,6:       z_2 + 200 lz_2 + 110 wz_2 + 40 hz_2 + 520 s_2,6 - H_6 <= 520
 length_2,7:       x_2 + 200 lx_2 + 110 wx_2 + 40 hx_2 + 520 s_2,7 - L_7 <= 520
 width_2,7:        y_2 + 200 ly_2 + 110 wy_2 + 40 hy_2 + 500 s_2,7 - W_7 <= 500
 height_2,7:       z_2 + 200 lz_2 + 110 wz_2 + 40 hz_2 + 520 s_2,7 - H_7 <= 520
 length_2,8:       x_2 + 200 lx_2 + 110 wx_2 + 40 hx_2 + 520 s_2,8 - L_8 <= 520
 width_2,8:        y_2 + 200 ly_2 + 110 wy_2 + 40 hy_2 + 500 s_2,8 - W_8 <= 500
 height_2,8:       z_2 + 200 lz_2 + 110 wz_2 + 40 hz_2 + 520 s_2,8 - H_8 <= 520
 length_2,9:       x_2 + 200 lx_2 + 110 wx_2 + 40 hx_2 + 520 s_2,9 - L_9 <= 520
 width_2,9:        y_2 + 200 ly_2 + 110 wy_2 + 40 hy_2 + 500 s_2,9 - W_9 <= 500
 height_2,9:       z_2 + 200 lz_2 + 110 wz_2 + 40 hz_2 + 520 s_2,9 - H_9 <= 520
 length_2,10:      x_2 + 200 lx_2 + 110 wx_2 + 40 hx_2 + 520 s_2,10 - L_10
                   <= 520
 width_2,10:       y_2 + 200 ly_2 + 110 wy_2 + 40 hy_2 + 500 s_2,10 - W_10
                   <= 500
 height_2,10:      z_2 + 200 lz_2 + 110 wz_2 + 40 hz_2 + 520 s_2,10 - H_10
                   <= 520
 length_2,11:      x_2 + 200 lx_2 + 110 wx_2 + 40 hx_2 + 520 s_2,11 - L_11
                   <= 520
 width_2,11:       y_2 + 200 ly_2 + 110 wy_2 + 40 hy_2 + 500 s_2,11 - W_11
                   <= 500
 height_2,11:      z_2 + 200 lz_2 + 110 wz_2 + 40 hz_2 + 520 s_2,11 - H_11
                   <= 520
 length_3,0:       x_3 + 10 lx_3 + 10 wx_3 + 10 hx_3 + 520 s_3,0 - L_0 <= 520
 width_3,0:        y_3 + 10 ly_3 + 10 wy_3 + 10 hy_3 + 500 s_3,0 - W_0 <= 500
 height_3,0:       z_3 + 10 lz_3 + 10 wz_3 + 10 hz_3 + 520 s_3,0 - H_0 <= 520
 length_3,1:       x_3 + 10 lx_3 + 10 wx_3 + 10 hx_3 + 520 s_3,1 - L_1 <= 520
 width_3,1:        y_3 + 10 ly_3 + 10 wy_3 + 10 hy_3 + 500 s_3,1 - W_1 <= 500
 height_3,1:       z_3 + 10 lz_3 + 10 wz_3 + 10 hz_3 + 520 s_3,1 - H_1 <= 520
 length_3,2:       x_3 + 10 lx_3 + 10 wx_3 + 10 hx_3 + 520 s_3,2 - L_2 <= 520
 width_3,2:        y_3 + 10 ly_3 + 10 wy_3 + 10 hy_3 + 500 s_3,2 - W_2 <= 500
 height_3,2:       z_3 + 10 lz_3 + 10 wz_3 + 10 hz_3 + 520 s_3,2 - H_2 <= 520
 length_3,3:       x_3 + 10 lx_3 + 10 wx_3 + 10 hx_3 + 520 s_3,3 - L_3 <= 520
 width_3,3:        y_3 + 10 ly_3 + 10 wy_3 + 10 hy_3 + 500 s_3,3 - W_3 <= 500
 height_3,3:       z_3 + 10 lz_3 + 10 wz_3 + 10 hz_3 + 520 s_3,3 - H_3 <= 520
 length_3,4:       x_3 + 10 lx_3 + 10 wx_3 + 10 hx_3 + 520 s_3,4 - L_4 <= 520
 width_3,4:        y_3 + 10 ly_3 + 10 wy_3 + 10 hy_3 + 500 s_3,4 - W_4 <= 500
 height_3,4:       z_3 + 10 lz_3 + 10 wz_3 + 10 hz_3 + 520 s_3,4 - H_4 <= 520
 length_3,5:       x_3 + 10 lx_3 + 10 wx_3 + 10 hx_3 + 520 s_3,5 - L_5 <= 520
 width_3,5:        y_3 + 10 ly_3 + 10 wy_3 + 10 hy_3 + 500 s_3,5 - W_5 <= 500
 height_3,5:       z_3 + 10 lz_3 + 10 wz_3 + 10 hz_3 + 520 s_3,5 - H_5 <= 520
 length_3,6:       x_3 + 10 lx_3 + 10 wx_3 + 10 hx_3 + 520 s_3,6 - L_6 <= 520
 width_3,6:        y_3 + 10 ly_3 + 10 wy_3 + 10 hy_3 + 500 s_3,6 - W_6 <= 500
 height_3,6:       z_3 + 10 lz_3 + 10 wz_3 + 10 hz_3 + 520 s_3,6 - H_6 <= 520
 length_3,7:       x_3 + 10 lx_3 + 10 wx_3 + 10 hx_3 + 520 s_3,7 - L_7 <= 520
 width_3,7:        y_3 + 10 ly_3 + 10 wy_3 + 10 hy_3 + 500 s_3,7 - W_7 <= 500
 height_3,7:       z_3 + 10 lz_3 + 10 wz_3 + 10 hz_3 + 520 s_3,7 - H_7 <= 520
 length_3,8:       x_3 + 10 lx_3 + 10 wx_3 + 10 hx_3 + 520 s_3,8 - L_8 <= 520
 width_3,8:        y_3 + 10 ly_3 + 10 wy_3 + 10 hy_3 + 500 s_3,8 - W_8 <= 500
 height_3,8:       z_3 + 10 lz_3 + 10 wz_3 + 10 hz_3 + 520 s_3,8 - H_8 <= 520
 length_3,9:       x_3 + 10 lx_3 + 10 wx_3 + 10 hx_3 + 520 s_3,9 - L_9 <= 520
 width_3,9:        y_3 + 10 ly_3 + 10 wy_3 + 10 hy_3 + 500 s_3,9 - W_9 <= 500
 height_3,9:       z_3 + 10 lz_3 + 10 wz_3 + 10 hz_3 + 520 s_3,9 - H_9 <= 520
 length_3,10:      x_3 + 10 lx_3 + 10 wx_3 + 10 hx_3 + 520 s_3,10 - L_10 <= 520
 width_3,10:       y_3 + 10 ly_3 + 10 wy_3 + 10 hy_3 + 500 s_3,10 - W_10 <= 500
 height_3,10:      z_3 + 10 lz_3 + 10 wz_3 + 10 hz_3 + 520 s_3,10 - H_10 <= 520
 length_3,11:      x_3 + 10 lx_3 + 10 wx_3 + 10 hx_3 + 520 s_3,11 - L_11 <= 520
 width_3,11:       y_3 + 10 ly_3 + 10 wy_3 + 10 hy_3 + 500 s_3,11 - W_11 <= 500
 height_3,11:      z_3 + 10 lz_3 + 10 wz_3 + 10 hz_3 + 520 s_3,11 - H_11 <= 520
 c269:             lx_0 + ly_0 + lz_0  = 1
 c270:             wx_0 + wy_0 + wz_0  = 1
 c271:             hx_0 + hy_0 + hz_0  = 1
 c272:             lx_0 + wx_0 + hx_0  = 1
 c273:             ly_0 + wy_0 + hy_0  = 1
 c274:             lz_0 + wz_0 + hz_0  = 1
 c275:             lx_1 + ly_1 + lz_1  = 1
 c276:             wx_1 + wy_1 + wz_1  = 1
 c277:             hx_1 + hy_1 + hz_1  = 1
 c278:             lx_1 + wx_1 + hx_1  = 1
 c279:             ly_1 + wy_1 + hy_1  = 1
 c280:             lz_1 + wz_1 + hz_1  = 1
 c281:             lx_2 + ly_2 + lz_2  = 1
 c282:             wx_2 + wy_2 + wz_2  = 1
 c283:             hx_2 + hy_2 + hz_2  = 1
 c284:             lx_2 + wx_2 + hx_2  = 1
 c285:             ly_2 + wy_2 + hy_2  = 1
 c286:             lz_2 + wz_2 + hz_2  = 1
 c287:             lx_3 + ly_3 + lz_3  = 1
 c288:             wx_3 + wy_3 + wz_3  = 1
 c289:             hx_3 + hy_3 + hz_3  = 1
 c290:             lx_3 + wx_3 + hx_3  = 1
 c291:             ly_3 + wy_3 + hy_3  = 1
 c292:             lz_3 + wz_3 + hz_3  = 1
 transformX_0:     L_0 + H_0 <= 370
 transformY_0:     W_0 + H_0 <= 330
 transformX_1:     L_1 + H_1 <= 370
 transformY_1:     W_1 + H_1 <= 330
 transformX_2:     L_2 + H_2 <= 370
 transformY_2:     W_2 + H_2 <= 330
 transformX_3:     L_3 + H_3 <= 370
 transformY_3:     W_3 + H_3 <= 330
 transformX_4:     L_4 + H_4 <= 440
 transformY_4:     W_4 + H_4 <= 410
 transformX_5:     L_5 + H_5 <= 440
 transformY_5:     W_5 + H_5 <= 410
 transformX_6:     L_6 + H_6 <= 440
 transformY_6:     W_6 + H_6 <= 410
 transformX_7:     L_7 + H_7 <= 440
 transformY_7:     W_7 + H_7 <= 410
 transformX_8:     L_8 + H_8 <= 520
 transformY_8:     W_8 + H_8 <= 500
 transformX_9:     L_9 + H_9 <= 520
 transformY_9:     W_9 + H_9 <= 500
 transformX_10:    L_10 + H_10 <= 520
 transformY_10:    W_10 + H_10 <= 500
 transformX_11:    L_11 + H_11 <= 520
 transformY_11:    W_11 + H_11 <= 500
 bagCut0,1:        n_0 - n_1 >= 0
 bagCut1,2:        n_1 - n_2 >= 0
 bagCut2,3:        n_2 - n_3 >= 0
 bagCut4,5:        n_4 - n_5 >= 0
 bagCut5,6:        n_5 - n_6 >= 0
 bagCut6,7:        n_6 - n_7 >= 0
 bagCut8,9:        n_8 - n_9 >= 0
 bagCut9,10:       n_9 - n_10 >= 0
 bagCut10,11:      n_10 - n_11 >= 0
Bounds
 0 <= x_1 <= 520
 0 <= a_0,1 <= 1
 0 <= x_0 <= 520
 0 <= lx_0 <= 1
 0 <= wx_0 <= 1
 0 <= hx_0 <= 1
 0 <= b_0,1 <= 1
 0 <= lx_1 <= 1
 0 <= wx_1 <= 1
 0 <= hx_1 <= 1
 0 <= y_1 <= 520
 0 <= c_0,1 <= 1
 0 <= y_0 <= 520
 0 <= ly_0 <= 1
 0 <= wy_0 <= 1
 0 <= hy_0 <= 1
 0 <= d_0,1 <= 1
 0 <= ly_1 <= 1
 0 <= wy_1 <= 1
 0 <= hy_1 <= 1
 0 <= z_1 <= 520
 0 <= r_0,1 <= 1
 0 <= z_0 <= 520
 0 <= lz_0 <= 1
 0 <= wz_0 <= 1
 0 <= hz_0 <= 1
 0 <= f_0,1 <= 1
 0 <= lz_1 <= 1
 0 <= wz_1 <= 1
 0 <= hz_1 <= 1
 0 <= x_2 <= 520
 0 <= a_0,2 <= 1
 0 <= b_0,2 <= 1
 0 <= lx_2 <= 1
 0 <= wx_2 <= 1
 0 <= hx_2 <= 1
 0 <= y_2 <= 520
 0 <= c_0,2 <= 1
 0 <= d_0,2 <= 1
 0 <= ly_2 <= 1
 0 <= wy_2 <= 1
 0 <= hy_2 <= 1
 0 <= z_2 <= 520
 0 <= r_0,2 <= 1
 0 <= f_0,2 <= 1
 0 <= lz_2 <= 1
 0 <= wz_2 <= 1
 0 <= hz_2 <= 1
 0 <= x_3 <= 520
 0 <= a_0,3 <= 1
 0 <= b_0,3 <= 1
 0 <= lx_3 <= 1
 0 <= wx_3 <= 1
 0 <= hx_3 <= 1
 0 <= y_3 <= 520
 0 <= c_0,3 <= 1
 0 <= d_0,3 <= 1
 0 <= ly_3 <= 1
 0 <= wy_3 <= 1
 0 <= hy_3 <= 1
 0 <= z_3 <= 520
 0 <= r_0,3 <= 1
 0 <= f_0,3 <= 1
 0 <= lz_3 <= 1
 0 <= wz_3 <= 1
 0 <= hz_3 <= 1
 0 <= a_1,2 <= 1
 0 <= b_1,2 <= 1
 0 <= c_1,2 <= 1
 0 <= d_1,2 <= 1
 0 <= r_1,2 <= 1
 0 <= f_1,2 <= 1
 0 <= a_1,3 <= 1
 0 <= b_1,3 <= 1
 0 <= c_1,3 <= 1
 0 <= d_1,3 <= 1
 0 <= r_1,3 <= 1
 0 <= f_1,3 <= 1
 0 <= a_2,3 <= 1
 0 <= b_2,3 <= 1
 0 <= c_2,3 <= 1
 0 <= d_2,3 <= 1
 0 <= r_2,3 <= 1
 0 <= f_2,3 <= 1
 0 <= s_0,0 <= 1
 0 <= s_1,0 <= 1
 0 <= s_0,1 <= 1
 0 <= s_1,1 <= 1
 0 <= s_0,2 <= 1
 0 <= s_1,2 <= 1
 0 <= s_0,3 <= 1
 0 <= s_1,3 <= 1
 0 <= s_0,4 <= 1
 0 <= s_1,4 <= 1
 0 <= s_0,5 <= 1
 0 <= s_1,5 <= 1
 0 <= s_0,6 <= 1
 0 <= s_1,6 <= 1
 0 <= s_0,7 <= 1
 0 <= s_1,7 <= 1
 0 <= s_0,8 <= 1
 0 <= s_1,8 <= 1
 0 <= s_0,9 <= 1
 0 <= s_1,9 <= 1
 0 <= s_0,10 <= 1
 0 <= s_1,10 <= 1
 0 <= s_0,11 <= 1
 0 <= s_1,11 <= 1
 0 <= s_2,0 <= 1
 0 <= s_2,1 <= 1
 0 <= s_2,2 <= 1
 0 <= s_2,3 <= 1
 0 <= s_2,4 <= 1
 0 <= s_2,5 <= 1
 0 <= s_2,6 <= 1
 0 <= s_2,7 <= 1
 0 <= s_2,8 <= 1
 0 <= s_2,9 <= 1
 0 <= s_2,10 <= 1
 0 <= s_2,11 <= 1
 0 <= s_3,0 <= 1
 0 <= s_3,1 <= 1
 0 <= s_3,2 <= 1
 0 <= s_3,3 <= 1
 0 <= s_3,4 <= 1
 0 <= s_3,5 <= 1
 0 <= s_3,6 <= 1
 0 <= s_3,7 <= 1
 0 <= s_3,8 <= 1
 0 <= s_3,9 <= 1
 0 <= s_3,10 <= 1
 0 <= s_3,11 <= 1
 0 <= n_0 <= 1
 0 <= n_1 <= 1
 0 <= n_2 <= 1
 0 <= n_3 <= 1
 0 <= n_4 <= 1
 0 <= n_5 <= 1
 0 <= n_6 <= 1
 0 <= n_7 <= 1
 0 <= n_8 <= 1
 0 <= n_9 <= 1
 0 <= n_10 <= 1
 0 <= n_11 <= 1
 0 <= L_0 <= 370
 0 <= W_0 <= 370
 0 <= H_0 <= 370
 0 <= L_1 <= 370
 0 <= W_1 <= 370
 0 <= H_1 <= 370
 0 <= L_2 <= 370
 0 <= W_2 <= 370
 0 <= H_2 <= 370
 0 <= L_3 <= 370
 0 <= W_3 <= 370
 0 <= H_3 <= 370
 0 <= L_4 <= 440
 0 <= W_4 <= 440
 0 <= H_4 <= 440
 0 <= L_5 <= 440
 0 <= W_5 <= 440
 0 <= H_5 <= 440
 0 <= L_6 <= 440
 0 <= W_6 <= 440
 0 <= H_6 <= 440
 0 <= L_7 <= 440
 0 <= W_7 <= 440
 0 <= H_7 <= 440
 0 <= L_8 <= 520
 0 <= W_8 <= 520
 0 <= H_8 <= 520
 0 <= L_9 <= 520
 0 <= W_9 <= 520
 0 <= H_9 <= 520
 0 <= L_10 <= 520
 0 <= W_10 <= 520
 0 <= H_10 <= 520
 0 <= L_11 <= 520
 0 <= W_11 <= 520
 0 <= H_11 <= 520
Generals
 a_0,1  lx_0  wx_0  hx_0  b_0,1  lx_1  wx_1  hx_1  c_0,1  ly_0  wy_0  hy_0 
 d_0,1  ly_1  wy_1  hy_1  r_0,1  lz_0  wz_0  hz_0  f_0,1  lz_1  wz_1  hz_1 
 a_0,2  b_0,2  lx_2  wx_2  hx_2  c_0,2  d_0,2  ly_2  wy_2  hy_2  r_0,2  f_0,2 
 lz_2  wz_2  hz_2  a_0,3  b_0,3  lx_3  wx_3  hx_3  c_0,3  d_0,3  ly_3  wy_3 
 hy_3  r_0,3  f_0,3  lz_3  wz_3  hz_3  a_1,2  b_1,2  c_1,2  d_1,2  r_1,2 
 f_1,2  a_1,3  b_1,3  c_1,3  d_1,3  r_1,3  f_1,3  a_2,3  b_2,3  c_2,3  d_2,3 
 r_2,3  f_2,3  s_0,0  s_1,0  s_0,1  s_1,1  s_0,2  s_1,2  s_0,3  s_1,3  s_0,4 
 s_1,4  s_0,5  s_1,5  s_0,6  s_1,6  s_0,7  s_1,7  s_0,8  s_1,8  s_0,9  s_1,9 
 s_0,10  s_1,10  s_0,11  s_1,11  s_2,0  s_2,1  s_2,2  s_2,3  s_2,4  s_2,5 
 s_2,6  s_2,7  s_2,8  s_2,9  s_2,10  s_2,11  s_3,0  s_3,1  s_3,2  s_3,3  s_3,4 
 s_3,5  s_3,6  s_3,7  s_3,8  s_3,9  s_3,10  s_3,11  n_0  n_1  n_2  n_3  n_4 
 n_5  n_6  n_7  n_8  n_9  n_10  n_11 
End
